node 0 w: 6.16, h: 12.95
node 1 w: 4.9, h: 12.95
node 2 w: 8.2026-06-21 11:59:32 - INFO - Set parameter WLSAccessID
2026-06-21 11:59:32 - INFO - Set parameter WLSSecret
2026-06-21 11:59:32 - INFO - Set parameter LicenseID to value 2756663
2026-06-21 11:59:32 - INFO - Academic license 2756663 - for non-commercial use only - registered to hu___@sjtu.edu.cn
2026-06-21 11:59:32 - INFO - Set parameter TimeLimit to value 300
2026-06-21 11:59:32 - INFO - Set parameter MIPGap to value 0
2026-06-21 11:59:32 - INFO - Set parameter MIPFocus to value 3
2026-06-21 11:59:32 - INFO - Set parameter Heuristics to value 0.5
2026-06-21 11:59:32 - INFO - Set parameter LogToConsole to value 1
2026-06-21 11:59:32 - INFO - Gurobi Optimizer version 13.0.1 build v13.0.1rc0 (linux64 - "Ubuntu 20.04.6 LTS")
2026-06-21 11:59:32 - INFO - 
2026-06-21 11:59:32 - INFO - CPU model: AMD Ryzen 9 9950X3D 16-Core Processor, instruction set [SSE2|AVX|AVX2|AVX512]
2026-06-21 11:59:32 - INFO - Thread count: 14 physical cores, 28 logical processors, using up to 28 threads
2026-06-21 11:59:32 - INFO - 
2026-06-21 11:59:32 - INFO - Non-default parameters:
2026-06-21 11:59:32 - INFO - TimeLimit  300
2026-06-21 11:59:32 - INFO - MIPGap  0
2026-06-21 11:59:32 - INFO - Heuristics  0.5
2026-06-21 11:59:32 - INFO - MIPFocus  3
2026-06-21 11:59:32 - INFO - 
2026-06-21 11:59:32 - INFO - Academic license 2756663 - for non-commercial use only - registered to hu___@sjtu.edu.cn
2026-06-21 11:59:32 - INFO - Optimize a model with 1107 rows, 510 columns and 3773 nonzeros (Min)
2026-06-21 11:59:32 - INFO - Model fingerprint: 0xc600e46b
2026-06-21 11:59:32 - INFO - Model has 4 linear objective coefficients
2026-06-21 11:59:32 - INFO - Variable types: 207 continuous, 303 integer (303 binary)
2026-06-21 11:59:32 - INFO - Coefficient statistics:
2026-06-21 11:59:32 - INFO -   Matrix range     [3e-01, 4e+03]
2026-06-21 11:59:32 - INFO -   Objective range  [2e-05, 9e-02]
2026-06-21 11:59:32 - INFO -   Bounds range     [9e-01, 1e+07]
2026-06-21 11:59:32 - INFO -   RHS range        [9e-01, 3e+02]
2026-06-21 11:59:32 - INFO - 
2026-06-21 11:59:32 - INFO - Presolve removed 100 rows and 86 columns
2026-06-21 11:59:32 - INFO - Presolve time: 0.01s
2026-06-21 11:59:32 - INFO - Presolved: 1007 rows, 424 columns, 3564 nonzeros
2026-06-21 11:59:32 - INFO - Variable types: 141 continuous, 283 integer (283 binary)
2026-06-21 11:59:32 - INFO - Root relaxation presolve removed 86 rows and 18 columns
2026-06-21 11:59:32 - INFO - Root relaxation presolved: 921 rows, 424 columns, 3378 nonzeros
2026-06-21 11:59:32 - INFO - 
2026-06-21 11:59:32 - INFO - 
2026-06-21 11:59:32 - INFO - Root relaxation: objective -2.063466e+01, 215 iterations, 0.00 seconds (0.01 work units)
2026-06-21 11:59:32 - INFO - 
2026-06-21 11:59:32 - INFO -     Nodes    |    Current Node    |     Objective Bounds      |     Work
2026-06-21 11:59:32 - INFO -  Expl Unexpl |  Obj  Depth IntInf | Incumbent    BestBd   Gap | It/Node Time
2026-06-21 11:59:32 - INFO - 
2026-06-21 11:59:32 - INFO -      0     0  -20.63466    0  114          -  -20.63466      -     -    0s
2026-06-21 11:59:32 - INFO -      0     0   -9.59087    0  137          -   -9.59087      -     -    0s
2026-06-21 11:59:32 - INFO -      0     0   -9.59087    0  135          -   -9.59087      -     -    0s
2026-06-21 11:59:32 - INFO -      0     0   -9.59087    0  113          -   -9.59087      -     -    0s
2026-06-21 11:59:32 - INFO -      0     0   -9.51340    0  109          -   -9.51340      -     -    0s
2026-06-21 11:59:32 - INFO -      0     0   -9.51340    0  127          -   -9.51340      -     -    0s
2026-06-21 11:59:32 - INFO -      0     0   -9.51340    0  115          -   -9.51340      -     -    0s
2026-06-21 11:59:32 - INFO -      0     0    2.06150    0  114          -    2.06150      -     -    0s
2026-06-21 11:59:32 - INFO -      0     0    2.07346    0  117          -    2.07346      -     -    0s
2026-06-21 11:59:32 - INFO -      0     0    2.07346    0  119          -    2.07346      -     -    0s
2026-06-21 11:59:32 - INFO -      0     0    2.07346    0  119          -    2.07346      -     -    0s
2026-06-21 11:59:33 - INFO -      0     0    2.12745    0  124          -    2.12745      -     -    0s
2026-06-21 11:59:33 - INFO -      0     0    2.12745    0  118          -    2.12745      -     -    0s
2026-06-21 11:59:33 - INFO -      0     0    2.12745    0   92          -    2.12745      -     -    0s
2026-06-21 11:59:33 - INFO -      0     0    2.32603    0  106          -    2.32603      -     -    0s
2026-06-21 11:59:33 - INFO -      0     0    2.32603    0  108          -    2.32603      -     -    0s
2026-06-21 11:59:33 - INFO -      0     0    2.32603    0  112          -    2.32603      -     -    0s
2026-06-21 11:59:33 - INFO -      0     0    2.54825    0   92          -    2.54825      -     -    0s
2026-06-21 11:59:33 - INFO -      0     0    2.54825    0   90          -    2.54825      -     -    0s
2026-06-21 11:59:33 - INFO -      0     0    2.70212    0   89          -    2.70212      -     -    0s
2026-06-21 11:59:33 - INFO -      0     0    2.70212    0   84          -    2.70212      -     -    0s
2026-06-21 11:59:34 - INFO -      0     2    2.70212    0   84          -    2.70212      -     -    1s
2026-06-21 11:59:38 - INFO -   2390  1902    3.40362    8   82          -    3.40362      -  36.2    5s
2026-06-21 11:59:42 - INFO -  12848  5270 infeasible   26               -    5.78718      -  46.6   10s
2026-06-21 11:59:47 - INFO - 
2026-06-21 11:59:47 - INFO - Cutting planes:
2026-06-21 11:59:47 - INFO -   Learned: 28
2026-06-21 11:59:47 - INFO -   Gomory: 105
2026-06-21 11:59:47 - INFO -   Lift-and-project: 38
2026-06-21 11:59:47 - INFO -   Cover: 3
2026-06-21 11:59:47 - INFO -   MIR: 44
2026-06-21 11:59:47 - INFO -   Flow cover: 272
2026-06-21 11:59:47 - INFO -   Inf proof: 14
2026-06-21 11:59:47 - INFO -   Relax-and-lift: 2
2026-06-21 11:59:47 - INFO - 
2026-06-21 11:59:47 - INFO - Explored 35495 nodes (1312404 simplex iterations) in 14.88 seconds (21.74 work units)
2026-06-21 11:59:47 - INFO - Thread count was 28 (of 28 available processors)
2026-06-21 11:59:47 - INFO - 
2026-06-21 11:59:47 - INFO - Solution count 0
2026-06-21 11:59:47 - INFO - 
2026-06-21 11:59:47 - INFO - Model is infeasible or unbounded
2026-06-21 11:59:47 - INFO - Best objective -, best bound -, gap -
2026-06-21 11:59:47 - INFO - Set parameter TimeLimit to value 300
2026-06-21 11:59:47 - INFO - Set parameter MIPGap to value 0.3
2026-06-21 11:59:47 - INFO - Set parameter MIPFocus to value 3
2026-06-21 11:59:47 - INFO - Set parameter Heuristics to value 0.5
2026-06-21 11:59:47 - INFO - Set parameter LogToConsole to value 1
2026-06-21 11:59:47 - INFO - Gurobi Optimizer version 13.0.1 build v13.0.1rc0 (linux64 - "Ubuntu 20.04.6 LTS")
2026-06-21 11:59:47 - INFO - 
2026-06-21 11:59:47 - INFO - CPU model: AMD Ryzen 9 9950X3D 16-Core Processor, instruction set [SSE2|AVX|AVX2|AVX512]
2026-06-21 11:59:47 - INFO - Thread count: 14 physical cores, 28 logical processors, using up to 28 threads
2026-06-21 11:59:47 - INFO - 
2026-06-21 11:59:47 - INFO - Non-default parameters:
2026-06-21 11:59:47 - INFO - TimeLimit  300
2026-06-21 11:59:47 - INFO - MIPGap  0.3
2026-06-21 11:59:47 - INFO - Heuristics  0.5
2026-06-21 11:59:47 - INFO - MIPFocus  3
2026-06-21 11:59:47 - INFO - 
2026-06-21 11:59:47 - INFO - Academic license 2756663 - for non-commercial use only - registered to hu___@sjtu.edu.cn
2026-06-21 11:59:47 - INFO - Optimize a model with 1107 rows, 510 columns and 3773 nonzeros (Min)
2026-06-21 11:59:47 - INFO - Model fingerprint: 0xc600e46b
2026-06-21 11:59:47 - INFO - Model has 4 linear objective coefficients
2026-06-21 11:59:47 - INFO - Variable types: 207 continuous, 303 integer (303 binary)
2026-06-21 11:59:47 - INFO - Coefficient statistics:
2026-06-21 11:59:47 - INFO -   Matrix range     [3e-01, 4e+03]
2026-06-21 11:59:47 - INFO -   Objective range  [2e-05, 9e-02]
2026-06-21 11:59:47 - INFO -   Bounds range     [9e-01, 1e+07]
2026-06-21 11:59:47 - INFO -   RHS range        [9e-01, 3e+02]
2026-06-21 11:59:47 - INFO - 
2026-06-21 11:59:47 - INFO - Presolved: 1007 rows, 424 columns, 3564 nonzeros
2026-06-21 11:59:47 - INFO - 
2026-06-21 11:59:47 - INFO - Continuing optimization...
2026-06-21 11:59:47 - INFO - 
2026-06-21 11:59:47 - INFO - 
2026-06-21 11:59:47 - INFO - Cutting planes:
2026-06-21 11:59:47 - INFO -   Learned: 28
2026-06-21 11:59:47 - INFO -   Gomory: 105
2026-06-21 11:59:47 - INFO -   Lift-and-project: 38
2026-06-21 11:59:47 - INFO -   Cover: 3
2026-06-21 11:59:47 - INFO -   MIR: 44
2026-06-21 11:59:47 - INFO -   Flow cover: 272
2026-06-21 11:59:47 - INFO -   Inf proof: 14
2026-06-21 11:59:47 - INFO -   Relax-and-lift: 2
2026-06-21 11:59:47 - INFO - 
2026-06-21 11:59:47 - INFO - Explored 35495 nodes (1312404 simplex iterations) in 14.89 seconds (21.74 work units)
2026-06-21 11:59:47 - INFO - Most recent optimization runtime was 0.00 seconds (0.00 work units)
2026-06-21 11:59:47 - INFO - Thread count was 28 (of 28 available processors)
2026-06-21 11:59:47 - INFO - 
2026-06-21 11:59:47 - INFO - Solution count 0
2026-06-21 11:59:47 - INFO - 
2026-06-21 11:59:47 - INFO - Model is infeasible or unbounded
2026-06-21 11:59:47 - INFO - Best objective -, best bound -, gap -
2026-06-21 11:59:47 - INFO - Set parameter TimeLimit to value 3600
2026-06-21 11:59:47 - INFO - Set parameter MIPGap to value 0.8
2026-06-21 11:59:47 - INFO - Set parameter MIPFocus to value 3
2026-06-21 11:59:47 - INFO - Set parameter Heuristics to value 0.5
2026-06-21 11:59:47 - INFO - Set parameter LogToConsole to value 1
2026-06-21 11:59:47 - INFO - Gurobi Optimizer version 13.0.1 build v13.0.1rc0 (linux64 - "Ubuntu 20.04.6 LTS")
2026-06-21 11:59:47 - INFO - 
2026-06-21 11:59:47 - INFO - CPU model: AMD Ryzen 9 9950X3D 16-Core Processor, instruction set [SSE2|AVX|AVX2|AVX512]
2026-06-21 11:59:47 - INFO - Thread count: 14 physical cores, 28 logical processors, using up to 28 threads
2026-06-21 11:59:47 - INFO - 
2026-06-21 11:59:47 - INFO - Non-default parameters:
2026-06-21 11:59:47 - INFO - TimeLimit  3600
2026-06-21 11:59:47 - INFO - MIPGap  0.8
2026-06-21 11:59:47 - INFO - Heuristics  0.5
2026-06-21 11:59:47 - INFO - MIPFocus  3
2026-06-21 11:59:47 - INFO - 
2026-06-21 11:59:47 - INFO - Academic license 2756663 - for non-commercial use only - registered to hu___@sjtu.edu.cn
2026-06-21 11:59:47 - INFO - Optimize a model with 1107 rows, 510 columns and 3773 nonzeros (Min)
2026-06-21 11:59:47 - INFO - Model fingerprint: 0xc600e46b
2026-06-21 11:59:47 - INFO - Model has 4 linear objective coefficients
2026-06-21 11:59:47 - INFO - Variable types: 207 continuous, 303 integer (303 binary)
2026-06-21 11:59:47 - INFO - Coefficient statistics:
2026-06-21 11:59:47 - INFO -   Matrix range     [3e-01, 4e+03]
2026-06-21 11:59:47 - INFO -   Objective range  [2e-05, 9e-02]
2026-06-21 11:59:47 - INFO -   Bounds range     [9e-01, 1e+07]
2026-06-21 11:59:47 - INFO -   RHS range        [9e-01, 3e+02]
2026-06-21 11:59:47 - INFO - 
2026-06-21 11:59:47 - INFO - Presolved: 1007 rows, 424 columns, 3564 nonzeros
2026-06-21 11:59:47 - INFO - 
2026-06-21 11:59:47 - INFO - Continuing optimization...
2026-06-21 11:59:47 - INFO - 
2026-06-21 11:59:47 - INFO - 
2026-06-21 11:59:47 - INFO - Cutting planes:
2026-06-21 11:59:47 - INFO -   Learned: 28
2026-06-21 11:59:47 - INFO -   Gomory: 105
2026-06-21 11:59:47 - INFO -   Lift-and-project: 38
2026-06-21 11:59:47 - INFO -   Cover: 3
2026-06-21 11:59:47 - INFO -   MIR: 44
2026-06-21 11:59:47 - INFO -   Flow cover: 272
2026-06-21 11:59:47 - INFO -   Inf proof: 14
2026-06-21 11:59:47 - INFO -   Relax-and-lift: 2
2026-06-21 11:59:47 - INFO - 
2026-06-21 11:59:47 - INFO - Explored 35495 nodes (1312404 simplex iterations) in 14.89 seconds (21.74 work units)
2026-06-21 11:59:47 - INFO - Most recent optimization runtime was 0.00 seconds (0.00 work units)
2026-06-21 11:59:47 - INFO - Thread count was 28 (of 28 available processors)
2026-06-21 11:59:47 - INFO - 
2026-06-21 11:59:47 - INFO - Solution count 0
2026-06-21 11:59:47 - INFO - 
2026-06-21 11:59:47 - INFO - Model is infeasible or unbounded
2026-06-21 11:59:47 - INFO - Best objective -, best bound -, gap -
2026-06-21 11:59:47 - INFO - 
EMIB returned 0 solution(s) (max 1).
range     [9e-01, 1e+07]
  RHS range        [9e-01, 3e+02]

Presolved: 1007 rows, 424 columns, 3564 nonzeros

Continuing optimization...


Cutting planes:
  Learned: 28
  Gomory: 105
  Lift-and-project: 38
  Cover: 3
  MIR: 44
  Flow cover: 272
  Inf proof: 14
  Relax-and-lift: 2

Explored 35495 nodes (1312404 simplex iterations) in 14.89 seconds (21.74 work units)
Most recent optimization runtime was 0.00 seconds (0.00 work units)
Thread count was 28 (of 28 available processors)

Solution count 0

Model is infeasible or unbounded
Best objective -, best bound -, gap -
[EMIB] No feasible solution: MIPGap=0.3, status=4, time=0.00s, SolCount=0
[EMIB] Phase 2 no feasible solution, switching to phase 3 MIPGap=0.8.
Set parameter TimeLimit to value 3600
Set parameter MIPGap to value 0.8
Set parameter MIPFocus to value 3
Set parameter Heuristics to value 0.5
Set parameter LogToConsole to value 1
Gurobi Optimizer version 13.0.1 build v13.0.1rc0 (linux64 - "Ubuntu 20.04.6 LTS")

CPU model: AMD Ryzen 9 9950X3D 16-Core Processor, instruction set [SSE2|AVX|AVX2|AVX512]
Thread count: 14 physical cores, 28 logical processors, using up to 28 threads

Non-default parameters:
TimeLimit  3600
MIPGap  0.8
Heuristics  0.5
MIPFocus  3

Academic license 2756663 - for non-commercial use only - registered to hu___@sjtu.edu.cn
Optimize a model with 1107 rows, 510 columns and 3773 nonzeros (Min)
Model fingerprint: 0xc600e46b
Model has 4 linear objective coefficients
Variable types: 207 continuous, 303 integer (303 binary)
Coefficient statistics:
  Matrix range     [3e-01, 4e+03]
  Objective range  [2e-05, 9e-02]
  Bounds range     [9e-01, 1e+07]
  RHS range        [9e-01, 3e+02]

Presolved: 1007 rows, 424 columns, 3564 nonzeros

Continuing optimization...


Cutting planes:
  Learned: 28
  Gomory: 105
  Lift-and-project: 38
  Cover: 3
  MIR: 44
  Flow cover: 272
  Inf proof: 14
  Relax-and-lift: 2

Explored 35495 nodes (1312404 simplex iterations) in 14.89 seconds (21.74 work units)
Most recent optimization runtime was 0.00 seconds (0.00 work units)
Thread count was 28 (of 28 available processors)

Solution count 0

Model is infeasible or unbounded
Best objective -, best bound -, gap -
[EMIB] No feasible solution: MIPGap=0.8, status=4, time=0.00s, SolCount=0
[EMIB] Search failed, no feasible solution
  ✓ EMIB: 0 solution(s)
